language Essence 1.3

letting class be function(1 --> 1, 2 --> 1, 3 --> 1, 4 --> 1, 5 --> 1, 6 --> 1, 7 --> 1, 8 --> 1, 9 --> 1)
letting deck_length be 19
letting deck_width be 14
letting length be function(1 --> 1, 2 --> 4, 3 --> 6, 4 --> 2, 5 --> 1, 6 --> 1, 7 --> 1, 8 --> 1, 9 --> 1)
letting n_classes be 1
letting n_containers be 9
letting separation be function()
letting width be function(1 --> 1, 2 --> 9, 3 --> 5, 4 --> 13, 5 --> 6, 6 --> 1, 7 --> 1, 8 --> 1, 9 --> 1)
